400
400
320
319
319
316
316
315
315
314
314
314
313
312
312
312
311
310
310
310
310
310
309
309
308
308
301
300
298
298
298
297
296
295
295
294
294
293
291
289
288
288
288
287
287
285
285
284
283
282
281
281
280
280
280
279
279
279
279
279
277
277
276
276
276
275
275
275
273
273
272
272
272
271
270
270
269
268
268
266
266
265
265
265
264
264
264
263
263
263
263
263
262
262
261
261
260
260
259
259
259
258
258
258
257
257
256
255
254
254
253
252
252
251
251
250
250
250
249
249
248
248
248
247
247
247
246
245
245
245
244
244
243
242
242
242
241
239
239
238
238
237
237
236
236
235
234
232
230
229
228
228
227
227
226
226
226
226
225
224
224
223
222
222
222
221
220
220
219
218
217
217
216
216
215
215
214
214
213
212
212
211
211
210
209
208
208
207
205
204
204
203
201
201
200
200
199
199
199
198
197
197
196
196
196
196
195
195
195
194
193
192
192
191
191
190
190
190
190
189
188
188
188
186
184
184
184
183
181
181
181
181
181
180
180
180
178
178
177
177
177
176
176
174
173
173
172
171
171
170
168
168
168
168
167
166
165
165
164
164
164
164
162
162
162
160
159
159
158
158
158
157
156
156
155
154
154
153
153
152
152
152
151
151
151
150
150
147
146
146
145
144
144
143
141
141
141
141
140
140
139
139
137
136
136
135
134
134
134
132
132
131
131
131
130
130
129
128
128
128
128
128
128
127
126
126
125
125
124
124
119
116
114
113
112
112
112
112
112
111
111
111
110
110
109
109
109
108
107
107
107
107
107
106
106
105
103
103
103
102
102
102
101
101
100
100
100
98
97
96
94
94
93
92
92
90
90
90
89
89
88
87
86
85
85
85
85
84
84
84
83
83
83
83
83
82
82
82
82
81
80
80
